55685
48, 17, 23, 21, 29, 10, 22, 16, 39, 46, 36, 15, 52, 25, 31, 1, 27, 33, 42, 45, 11, 2, 14, 9, 12, 18, 4, 30, 47, 54, 34, 53, 55, 26, 28, 3, 6, 13, 43, 40, 51, 7, 37, 20, 50, 24, 35, 5, 41, 32, 38, 8, 44, 19, 49
